Ordonnancement/plne/source/petit_instance/2job/2job_16.dat
data;
param nombreJob := 2;
param nombreRessource := 3;
param duree := 1 1 2 10;
param capaciteRessource := 1 8 2 16 3 12;
param besoinRessource : 1 2 3 :=
                    1   4 7 2
                    2   2 1 10;
end;

